
 102   30
  10   10   10   10   10   10   10   10   10   10   10   10   10   10   10   10   10   10   10   10   10   10   10   10   10   10   10   10   10   10

   0   0   0   0   0   0   0   0   0   0   0   0   0   0   0   0   0   0   0   0   0   0   0   0   0   0   0   0   0   0   0  22 2 3 4 5 6 7 8 9 10 11 13 14 15 16 17 19 20 23 27 30 36 46 
   4   0   0   0   0   0   1   0   0   0   0   0   0   0   0   0   0   0   1   0   0   0   0   0   0   0   0   1   0   0   0  15 101 76 67 66 56 54 52 51 47 45 37 35 28 24 22 
   1   0   2   0   0   0   0   0   5   0   0   0   0   0   0   0   0   0   0   0   0   0   2   0   3   0   0   0   0   0   0  17 101 62 60 57 55 54 53 52 49 45 42 41 39 38 32 29 21 
  10   1   0   0   0   0   0   0   2   0   0   0   0   1   0   0   0   0   0   0   0   0   0   0   2   0   0   0   0   2   0  17 101 77 67 66 60 57 54 53 52 49 47 45 39 35 28 25 18 
   5   8   0   0   1   0   0   0   0   1   0   0   0   0   0   0   1   0   0   4   0   1   0   0   0   0   0   0   0   0   0  12 77 66 55 54 52 47 45 39 34 32 31 12 
  10   0   0   0   5   0   0   0   0   0   0   0   0   0   0   0   0   3   0   0   2   0  10   0   0   0   0   4   0   0   0  17 101 98 62 60 58 55 52 51 49 42 41 40 39 38 35 33 32 
   8   0   5   1   0   0   0   0   0   0   0   0   0   0   0   0   0   0   0   0   0   0   9   0   0   0   0   0   0   0   0  21 101 99 95 93 77 76 69 68 67 65 60 58 56 53 50 49 47 44 43 41 31 
   3   0   0   0   0   0   0   3   5   0   0   0   0  10   0   0   6   0   0   0   0   0   0   0   0   0   0   0   0   0   0  17 99 95 93 73 69 66 64 60 55 52 51 50 48 47 42 37 31 
   1   0   0   5   0   0   0   0   0   0   0   0   0   0   0   0   2   4   0   0   0   0   0   0   0   0   0   0   0   0   0  17 101 100 95 93 77 76 75 74 69 64 63 61 55 53 42 34 31 
   6   0   0   0   0   0   0   0   0   0   0   0   0   0   0   0   0   0   0   0   7   0   0   0   0   0   0   0   0   0   0  16 97 94 93 77 75 74 73 68 66 64 55 54 43 41 40 35 
   5   0   0   0   0   2   4   3   0   0   2   1   0   0   1   0   0   0   0   0   0   0   0   1   0   2   0   9   0   0   0  20 99 98 95 93 77 75 74 73 69 66 65 64 62 61 59 57 55 51 44 42 
   2   0   0   0   0   7   0   3   0   7   0   4   0   4   0   0   7   0   0   0   0   0   0   0   0   0   0   0   0   0   0  19 101 98 97 95 94 93 76 74 73 64 63 62 60 59 57 51 49 42 41 
   3   0   7   0   0   0   0   0   0   0  10   0   0   0   0   0   7   0   4   0   0   6   7   0   0   0   0   6   0   0   0  17 101 94 93 91 73 67 65 64 63 62 59 58 55 54 45 43 42 
   9   0   5   0   0   0   0   0   0   0   0   0   0   8   8   0   0   0   0   0   5   0   0   0   0   0   0   0   0   0   0  12 101 76 73 69 67 66 61 59 56 49 48 26 
   8   0   0   0   6   9   0   0   0   0   0   0   0   0   9   0   0   0   0   0   0   0   0   0   0   3   0   0   0   0   0  14 99 97 93 77 76 73 66 64 61 51 49 47 42 31 
   8   0   0   0   8   9   0   0   5   0   0   0   0   0   0   0   0   0   0   0   0   8   0   0   0   0   0   0   0   0   0  15 101 100 99 97 95 93 88 76 74 73 64 63 61 49 31 
   8   7   0   6   0   0   0   0   0   0   0   0   0   5   0   0   0   0   0   4   0   0   0   0   0   0   0   0   0   0   0  17 100 98 97 96 95 93 89 87 86 69 68 65 59 57 53 49 48 
   3   0   0   0   0   4   0   0   0   0   0   0   0   0   0   0   0   0   0   0   7   0   0   0   0   0   0   0   0   0   1  15 100 99 96 95 94 93 92 75 73 63 62 59 56 55 34 
   4   0   0   0   0   0   0   0   0   0   0   0   0   0   0   0   0   9   0   0   0   0   8   0   0   0   0   0   0   5   0  14 100 99 96 95 94 93 75 69 66 62 61 51 47 34 
   2   0   0   0   0   0   0   0   8   0   0   0   3   0   0   0   0   0   0   0   0   0   0   0   0   0   0   0   0   8   0  13 99 97 96 95 94 74 73 62 52 51 49 42 41 
   4   0   0   0   5   9   0   0   0   0   0   0   0   0   0   0   0   0   0   0   0   0   0   0   0   0   0   0   5   0   0  15 98 96 91 85 76 72 70 69 68 66 64 63 61 50 48 
   6   0   0   0   0   0   0   0   0   6   0   0   0   0   0   0   0   7   0   0   0   0   0   0   0   0   0   0   0   0   0  12 99 98 95 91 69 64 60 59 55 49 42 39 
   7   8   0   0   0   0   0   0   0   0   0   0   0   0   0   2   0   8   0   0   0   0   0   7   0   0   0   0   0   0   0  16 100 96 94 93 92 89 87 86 77 76 73 69 68 65 60 51 
   3   0   0   0   0   0   0   0   0   0   0   0   0   0   4   0   0   6   0   0   0   0   0   0   0   0   0   0   0   0   0  12 96 94 93 77 73 72 71 69 68 55 50 43 
   5   0   0   0   0   0   0   0   0   0   0   0   4   0   0   0   0   0   0   0   0   0   0   0   0   0   0   0   0   0   0  14 99 97 95 93 91 90 84 82 74 71 64 62 61 42 
   1   0   0   6   0   0   0   5   4   0   0   0   0   0   0   0   0   0  10   0   1   0   5   0   0   0   0   0   0   0   0  14 99 95 94 93 92 87 82 74 72 68 62 60 57 47 
   9   0   0   0   3   0   0   0   4   0   0   6   0   0   0   0   0   4   0   0   2   0   0   0   0   0   0   0   0   0   0  13 95 94 93 92 86 71 70 69 68 65 56 55 50 
   3   0   0   0   6   0   0   0   0   0   0   0   0   0   6   0   0   0   0   0   7   0   0   0   7   0   0   6   0   0   0  12 100 96 95 93 91 86 72 65 62 61 55 48 
   7   0   0   0   0   0   5  10   0   0   0   0   0   0   6   0   0   5   0   0   0   6   0   0   0   0   0   0   0   0   0  11 95 94 93 92 77 73 69 61 59 51 47 
   2  10   0   0   0   0   0   0   0   5   0   7   0   0   0   4   0   0   0   0   0   0   0   0   0   8   0   0   0   8   0  13 99 91 89 87 84 81 74 69 68 65 62 60 49 
   5   0   0   0   0   0   0   0   0   0   6   6   0   0   0   0   0   0   0   0   0   0   0   0   0   0   0   0   6   0   9  13 98 96 94 92 91 90 89 87 84 82 81 62 59 
   2   0   0   0   8   0   0   0   0   0   0   0   0   0   6   0   0   7   0   0   0   0   0   0   0  10   0   0   0   0   0  12 97 95 93 90 88 85 83 79 74 71 70 56 
   9   0   0   0   0   4   7   0   0   0   0   0   0   0   0   0   0   0   3   9   0   0   0   0   0   0   0   0   0   0   0  11 97 94 90 89 82 77 76 73 70 69 63 
   1   0   0   0   0   0   0   0   0   0   0   0   5   0   6   0   0   0   0   0   0   0   0   0   0   0   1   0   0   0   0  10 98 97 91 89 86 83 72 71 68 65 
  10   0   0   5   0   7   0   0   0   0   0   0   8   2   0   0   0   0   0   0   0   0   0   0   0   0   0   6   0   0   0  13 96 95 90 89 87 86 85 83 82 80 72 71 63 
   8   0   0   0   8   0   0   0   0   0   0   0   0   0   6   0   0   0   0  10   0   0   0   0   0   0   0   0   0   0   0   9 97 92 89 87 86 85 70 68 55 
   7   0   0   0   0   0   0   6   5   0   0   9   0   5   0   0   0   0   0   0   0   0   0   0  10   0   0   0   0   0   0  11 98 90 86 85 84 83 82 80 72 71 61 
   8   0   0   0   0   0   0   0   0   0   0   0   0   0   0   0   0   0   0   0   9   0   0   0   0   5   0   0   0   0   0   5 86 83 80 59 56 
   2   0   0   0   0   0   0   0   0   0   0   0   0   0   0   0   0   0   0   0  10   0   0   0   0   0   0   0   4   7   0  10 93 90 87 86 84 81 79 71 70 68 
   2   0   0   9   0   0   0   0   0   0   0   0   0   0   0   6   0  10   0   0   0   0   0   5   0   0   0   4   0   0   0   9 99 96 89 86 82 76 71 70 69 
   5   6   0   0   0   8   0   0   0   0   0   0   0   0   4   0  10   0   0   0   7   0   0   6   0   4   0   0   0   6   0   9 100 91 86 85 84 82 80 79 61 
   8   0   0   0   0   0   0   0   0   0   0   5   0   0   0   0   0   0   0   0   0   0   0   0   0   0   0   0   9   0   0   8 92 87 85 83 81 72 70 68 
   1   0   0   0   0   0   0   0   0   0   5   0   0   0   0   0   0   0   0   0   0   0   0   0   0   0   4   6   0   6   0   8 92 86 85 84 82 79 70 61 
   7   0   0   0   0   0   0   0   0   0   0   0   0   0   0   0   0   0   0   0   0   0   2   0   0   0   0   0   0   0   0   8 96 91 88 84 83 80 71 63 
   1   0   0   0   0   0   0   0   0   0   0   6   0   0   0   0   6   0   0   0   0   0   0   0   0   0   0   0   0   0   0   8 95 88 86 85 84 83 74 71 
   2   0   0   0   0   0   0   0   0   0   0   0   0   0   0   0   0   0   0   0   0   0   0   8   4   0   0   0   0   0   0   5 93 85 81 80 59 
   6   0   0   0  10   0   0   0   0   0   0   0   0   0   0   0   0   0   0   0   0   0   0   0   0   0   0   0   0   0   0   8 91 89 86 85 84 81 71 70 
   3   0   0   0   0   0   0   0   0   0   0   0   0   9   0   0   0   4   0   0   0   0   0   0   8   0   0   0   0  10   0   8 94 92 84 83 81 79 78 74 
   6   0   0   0   0   0   9   0   0   0   0   0   0   0   0   5   8   0   0   0   0   0   0   0   0   8   0   0   7   0   0   7 92 90 85 83 79 75 71 
   4   0   0   0   0   0   3   0   0   0   0   0   0   0   0   4   0   0   0   0   0   0   0   0   0   0   0   0   0   0   0   8 97 90 89 88 83 82 81 79 
   8   0   0   0   7   0   0   0   7   8   0   0   0   0   0   0   0   0   0   0   0   0   0   0   0   0   0   0   0   0   0   7 91 84 83 81 80 78 72 
   5   0   0   0   0   6   0   0   0   0   4   0   0   0   0   0   5   0   0   0   0   0   0   0   0   0  10   0   0   6   0   7 90 87 83 82 81 80 72 
   6   7   0   0   0   6   0   0   0   0   0   0   0   0   0   0   0   0   0   7   0   0   0   0   0   0   0   0   0   0   0   6 91 82 81 79 73 70 
   3   0  10   0   0   7   0   0   8   0   0   0   0   7   0   0   0   6   0   9   8   0   0   9   0   0   0   0   0   4   0   4 98 96 70 69 
   2   6   0   0   0   0   0   0   6   0   0   0   0   0   0   0   0   0   0   0   0   0   0   0   0   0   0   9   0   0   0   5 90 83 82 79 78 
   2   0   0   0   0   0   0   0  10   0   0   0   0   0   0  10   0   0   0   0   0   0   0   0   0   0   0   4   0   3   0   5 91 87 84 82 81 
   6   0   8   0   0   0   0   8   0   0   0   0   0   6   0   8   0   6   0   0   0   0   0   0   0   0   0   0   0   0   0   5 91 85 84 79 78 
   8   0   0   5   0   0   0   0   0   7   8   0   0   0   0   0   0   0   0   0   0   0  10   0   0   0   0   0   0   0   0   5 86 85 83 82 81 
   5   0   0   0   0   0   0   0   0   0   0   0   0   0   0   0   0   0   0   3   0   0   0   0  10   0   0   0   5   4   0   3 72 71 70 
   1   0   0   0   0   0   0   0   3   0   0   0   0   0   8   3   0   0   0   0   0   0   0   0   0   0   0   0   0   0   0   3 83 79 70 
   1   0   0   0   0   0   0   0   0   0   0   0   0   0   0   0   0   0   0   0   0   0   0   0   0   0   7   0   0   0   0   3 89 87 78 
   3   2   0   0   8   0   0   8   0   0   0   0   0   0   0   0   5   0   0   5   0   0   4   0   0   0   0   0   0   0   0   3 80 79 78 
   1   0   0   0   0   0   0   0   0   0   0   0   0   0   0   0   0   0   0   0   0   7   0   0   0   0   0   0   6   0   0   3 81 79 78 
  10   6   8   0   0   0   0   0   0   0   0   8   0   0   0   0   0   0   0   0   0   0   0   0   0   0   0   0   0   0   6   3 86 80 78 
  10   0   0   0   0  10   0   0   0   0   0   0   0   3   0   0   0   0   0   0   0   0   0   0   0   0   5   0   0   4   0   3 90 85 82 
   9   0   0   0   0   0   0   0   0   0   0   0   0   0   0   0   0   0   7   0   0   0   0   0   0   0   0   0   0   0   0   3 86 80 79 
   7   0   0   0   0   0   0   0   0   5   7   5   0   0   0   0   0   0   0   0   0   0   0   0   0   0   0   0   0   0   0   3 81 80 78 
   3   0   0   0   0   0   0   0   0   0   0   0   0   0   0   0   0   0   0   0   0   0   5   0   0   0   0   0   0   0   0   2 88 80 
   6   0   5   0   0   0   0   0   0   0   0   0   5   0   0   0   0   0   0  10   0   0   0   0   0   0   0   0   0   0   5   2 88 79 
   5   0   0   8   0   0   0   0   0   0   0   9   8   8   0   0   0   0   0   0   0   0   8   0   0   8   0   0   0   0   0   1 78 
   2  10   0   0   0   0   0   0   0   0   0   0   6   0   0   0   0   0   6   0   0   0   3   0   0   0   0   7   0   0   0   1 78 
  10   3   0   0   1   0   9   0  10   9   6   0   0   0   0   0   0   0   2   0   0   0   4   0   0   0   0   0   0   7   0   1 79 
   8   0   0   0   0   0   0   0   0   0   0   0   0   0   0   5   0   0   0   0   0   0   9   0   0   0   0   0   0   0   0   1 78 
   7   0   0   0   9   0   0   0   0   0   0   0   0   0   0   0   0   0   0   0   0   0   0   0   0   0   8   0   9   0   0   1 80 
   7   0   0   0   0   0   0   0   0   0   0   0   0   4   0   8  10   0   0   4   0   5   8   0   0   0   0  10   0   7   0   1 80 
   6   0   0   0   0   0   0   6   0   0   0   0   0   0   7   0   0   0   0   0   0   0   0   0   0   0   0   0   0   0   0   1 80 
   4   0   3   0   0   0   3   0   0   0   0   0   0   0   0   0   4   8   6   0   0   0   0   0   6   0   0   0   0   0   6   1 84 
   8   0   0   0   0   0   0   0  10   0   0   0   0   0   0   7   0   2   0   0   0   5   0   0   0   0   0   0   4   0   0   1 102
  10   0   0   0   0   0   0   0   0   0   0   0   0   0   0   0   0   0   0   0   0   0   0   0   0   0   0   0   0   0   0   1 102
   3   0   0   0   0   0   5   6   0   0   6   0   0   8   0   0   7   0   0   2   7   0   0   0   0   0   0   0   0   0   0   1 102
   1   0   0   0   0   4   0   0   0   0   0   0   0   0   0   6   0   0   0   0   0  10   0   0   0   0   0   0   0   0   0   1 102
   5   0   0   0   0   0   0   0   0   0   0   0  10   0   6   0   8   0   6   0   5   0   0   0   0   0   9   0   0   7   0   1 102
   1   0   0   0   0   2   9   0   0   0   0   0   0   0   0   0   0   0   0   0   6   0   0   0   0   0   0   6   0   0   0   1 102
   5   0   0   0   0   0   0   0   0   0   0   0   7   0   0   0   0   0   0   0  10   0   4   0   0   0   0   0   0   0   0   1 102
   8   0   5   0   0   0   0   0   0   0   7   6   4   0   0   0   0   7   0   0   0   0   0   3   3   0   0   0   0   0   0   1 102
  10   0   6   0   0   0   0   0   0   0   0   0   0   0   0   0   0   0   0   0   0   0   0   6   0   6   0   0   4   0   0   1 102
   7   0   0   0   0   0   0   0   0   0   0   0   0   9   0  10   0   0   0   0   0   0   2   0   7   0   0   0   6   0   0   1 102
   3   0   0   0   0   6   0   0   4   0   0   0   0   0   0   0   0   0   7   0   0   0   0   0   0   0   0   0   0   0   7   1 102
   3   4   0   0   0   0   0   0   0   0   0   0   0   0   0   0   0   0   0   0   0   0   0   0   0   0   0  10   0   0   0   1 102
   1   0   7   0   0   0   0   0   0   0   0   0   0   0   0   0   0   0   0   0   3   0   0   0   0   0   0   0   0   8   0   1 102
   1   0   0   0   0   0   0   8   0   0   0   0   0   0   0   0   4   0   5   0   0   0   0   0   0   0   0   0   0   0   0   1 102
  10   0   0   0   0   0   0   6   0   0  10   0   0   0   0   0   0   0   0   0   0   0  10   0   0   0   0   0   3   0   0   1 102
   6   0   0   0   7   0   0   0   0   0   0   0   0   0   0   0   0   0   0   0   0   0   0   0   0   0   0   0   0   0   0   1 102
   3   5   0   0   0   0   0   0   0   0   3   0   0   0   0   0   0   0   0   0   0   0   0  10   0   0   5   0  10   0   0   1 102
   6   0   0   0   0   0   0   0   0   0   0   0   0   0   0   0   0   0   0   0   0   0   4   5   0   0   0   0   0   0   0   1 102
   8   0   0   0   0   0   0   0   0   0   0   0   0   0   7   0   0   0  10   0   0   0   0   0   0   0   5   0   0   0   0   1 102
   1   0   0   0   0   0   9   0   0   0   0   0   0   0   0   0   0   0  10   0   0   0   0   0   0   0   0   0   0   0   0   1 102
   4   0   0   9   0   0   0   0   0   0   0   0   0   0   0   0   0   0   0   5   0   0   0   0   0   0   0   0   0   0   0   1 102
   7   7   0   0   0   0   8   0   0   0   0   0   0   6   0   6   0   0   5   0   0   0   0   0   0   0   0   0   0   0   0   1 102
   6   0   7   0   0   0   0   0   0   0   4   0   0   0   0   0   0   0   8   0   0   0   0   0   0   0   0   2   0   0   0   1 102
   2   0   0   6   4   2   0   0   0   0   0   0   0   7   0   0   0   0   0   0   0   0   0   0   0   0   0   0   0   0   8   1 102
   0   0   0   0   0   0   0   0   0   0   0   0   0   0   0   0   0   0   0   0   0   0   0   0   0   0   0   0   0   0   0   0 
